p cnf 81 193
a 8 2 15 9 3 16 1 7 14 21 32 28 40 36 44 48 56 61 0
d 68 32 40 0
d 76 56 61 0
d 4 2 3 0
d 5 1 2 3 0
d 6 1 2 3 0
d 10 8 9 0
d 11 7 8 9 0
d 12 7 8 9 0
d 13 1 2 3 7 8 9 0
d 17 15 16 0
d 18 14 15 16 0
d 19 14 15 16 0
d 20 1 2 3 7 8 9 14 15 16 0
d 22 1 7 0
d 23 2 3 0
d 24 1 7 2 3 0
d 25 21 1 7 2 3 0
d 26 21 1 7 2 3 0
d 27 1 2 3 7 8 9 14 15 16 21 0
d 29 28 2 3 0
d 30 28 2 3 0
d 31 1 2 3 7 8 9 14 15 16 21 28 0
d 33 32 28 0
d 34 32 28 0
d 35 1 2 3 7 8 9 14 15 16 21 28 32 0
d 37 36 8 9 0
d 38 36 8 9 0
d 39 1 2 3 7 8 9 14 15 16 21 28 32 36 0
d 41 40 36 0
d 42 40 36 0
d 43 1 2 3 7 8 9 14 15 16 21 28 32 36 40 0
d 45 44 15 16 0
d 46 44 15 16 0
d 47 1 2 3 7 8 9 14 15 16 21 28 32 36 40 44 0
d 49 28 36 0
d 50 2 3 0
d 51 2 3 0
d 52 28 36 2 3 0
d 53 48 28 36 2 3 0
d 54 48 28 36 2 3 0
d 55 1 2 3 7 8 9 14 15 16 21 28 32 36 40 44 48 0
d 57 44 48 0
d 58 56 44 48 0
d 59 56 44 48 0
d 60 1 2 3 7 8 9 14 15 16 21 28 32 36 40 44 48 56 0
d 62 15 16 0
d 63 61 15 16 0
d 64 61 15 16 0
d 65 1 2 3 7 8 9 14 15 16 21 28 32 36 40 44 48 56 61 0
d 66 8 9 0
d 67 8 9 0
d 69 1 7 0
d 70 32 40 1 7 0
d 71 8 9 32 40 1 7 0
d 72 44 48 0
d 73 14 21 0
d 74 44 48 14 21 0
d 75 8 9 32 40 1 7 44 48 14 21 0
d 77 14 21 0
d 78 14 21 15 16 0
d 79 56 61 14 21 15 16 0
d 80 8 9 32 40 1 7 44 48 14 21 56 61 15 16 0
d 81 1 2 3 7 8 9 14 15 16 21 28 32 36 40 44 48 56 61 0
4 -2 3 0
4 2 -3 0
-4 -2 -3 0
-4 2 3 0
5 -1 -4 0
5 1 4 0
-5 -1 4 0
-5 1 -4 0
6 5 0
-6 -5 0
10 -8 9 0
10 8 -9 0
-10 -8 -9 0
-10 8 9 0
11 -7 -10 0
11 7 10 0
-11 -7 10 0
-11 7 -10 0
12 11 0
-12 -11 0
13 -6 0
13 -12 0
-13 6 12 0
17 -15 16 0
17 15 -16 0
-17 -15 -16 0
-17 15 16 0
18 -14 -17 0
18 14 17 0
-18 -14 17 0
-18 14 -17 0
19 18 0
-19 -18 0
20 -13 0
20 -19 0
-20 13 19 0
-22 1 0
-22 7 0
22 -1 -7 0
-23 2 0
-23 3 0
23 -2 -3 0
24 -22 0
24 -23 0
-24 22 23 0
25 -21 -24 0
25 21 24 0
-25 -21 24 0
-25 21 -24 0
26 25 0
-26 -25 0
27 -20 0
27 -26 0
-27 20 26 0
29 -28 -4 0
29 28 4 0
-29 -28 4 0
-29 28 -4 0
30 29 0
-30 -29 0
31 -27 0
31 -30 0
-31 27 30 0
33 -32 -28 0
33 32 28 0
-33 -32 28 0
-33 32 -28 0
34 33 0
-34 -33 0
35 -31 0
35 -34 0
-35 31 34 0
37 -36 -10 0
37 36 10 0
-37 -36 10 0
-37 36 -10 0
38 37 0
-38 -37 0
39 -35 0
39 -38 0
-39 35 38 0
41 -40 -36 0
41 40 36 0
-41 -40 36 0
-41 40 -36 0
42 41 0
-42 -41 0
43 -39 0
43 -42 0
-43 39 42 0
45 -44 -17 0
45 44 17 0
-45 -44 17 0
-45 44 -17 0
46 45 0
-46 -45 0
47 -43 0
47 -46 0
-47 43 46 0
-49 28 0
-49 36 0
49 -28 -36 0
50 -2 0
50 -3 0
-50 2 3 0
51 50 0
-51 -50 0
52 -49 0
52 -51 0
-52 49 51 0
53 -48 -52 0
53 48 52 0
-53 -48 52 0
-53 48 -52 0
54 53 0
-54 -53 0
55 -47 0
55 -54 0
-55 47 54 0
-57 44 0
-57 48 0
57 -44 -48 0
58 -56 -57 0
58 56 57 0
-58 -56 57 0
-58 56 -57 0
59 58 0
-59 -58 0
60 -55 0
60 -59 0
-60 55 59 0
-62 15 0
-62 16 0
62 -15 -16 0
63 -61 -62 0
63 61 62 0
-63 -61 62 0
-63 61 -62 0
64 63 0
-64 -63 0
65 -60 0
65 -64 0
-65 60 64 0
-66 8 0
-66 9 0
66 -8 -9 0
67 -66 -66 0
67 66 66 0
-67 -66 66 0
-67 66 -66 0
69 -1 7 0
69 1 -7 0
-69 -1 -7 0
-69 1 7 0
70 -68 -69 0
70 68 69 0
-70 -68 69 0
-70 68 -69 0
-71 67 0
-71 70 0
71 -67 -70 0
72 -44 48 0
72 44 -48 0
-72 -44 -48 0
-72 44 48 0
73 -14 21 0
73 14 -21 0
-73 -14 -21 0
-73 14 21 0
74 -72 -73 0
74 72 73 0
-74 -72 73 0
-74 72 -73 0
-75 71 0
-75 74 0
75 -71 -74 0
-77 14 0
-77 21 0
77 -14 -21 0
78 -77 0
78 -62 0
-78 77 62 0
79 -76 -78 0
79 76 78 0
-79 -76 78 0
-79 76 -78 0
-80 75 0
-80 79 0
80 -75 -79 0
81 -65 0
81 -80 0
-81 65 80 0
81 0
